JulietBench/Juliet_Based_Patch_Bench/linux/CWE-189-Numeric-Errors/CVE_2015_4003_04bf464a5dfd9ade0dda918e44366c2c61fce80b/Resultoz_usb_handle_ep_data_Snippet_patch1EQ.smt2
; benchmark generated from python API
(set-info :status unknown)
(declare-fun R () (_ BitVec 32))
(declare-fun rsi () (_ BitVec 64))
(declare-fun rdi () (_ BitVec 64))
(assert
 (let (($x82 (= (_ bv4294967295 32) R)))
 (let ((?x12 ((_ extract 7 0) rsi)))
 (let (($x29 (= (_ bv0 8) ?x12)))
 (let (($x74 (and $x29 $x82)))
 (let ((?x27 (concat (_ bv0 56) ?x12)))
 (let ((?x6 ((_ extract 31 0) rdi)))
 (let ((?x25 (bvadd (_ bv4294967290 32) ?x6)))
 (let ((?x77 (bvashr ?x25 (_ bv31 32))))
 (let ((?x78 (concat ?x77 ?x25)))
 (let ((?x75 (bvsdiv ?x78 ?x27)))
 (let ((?x76 ((_ extract 31 0) ?x75)))
 (let (($x71 (= R ?x76)))
 (let (($x55 (and (distinct (_ bv0 8) ?x12) true)))
 (let (($x72 (and $x55 $x71)))
 (let (($x80 (or $x72 $x74)))
 (let (($x70 (= R ?x25)))
 (and $x70 $x80))))))))))))))))))
(check-sat)
